
  32    1
  10

   0   0   4 2 3 4 11 
   5   1   6 12 9 8 7 6 5 
   8   3   7 31 17 16 15 14 13 9 
   7   3   3 13 12 5 
   6   5   5 21 18 17 14 10 
   2   4   7 31 21 20 19 17 16 13 
   3   7   4 21 18 17 10 
   7   3   6 31 29 22 19 16 13 
  10   6   6 30 24 22 20 19 18 
   2   4   5 31 30 22 20 16 
   6   2   6 31 26 24 23 21 20 
  10   1   3 24 21 17 
   7   6   5 30 26 24 23 18 
   1   4   5 30 28 27 24 20 
   3   5   4 24 23 22 21 
   9   2   5 28 27 26 24 23 
   7   3   4 29 28 26 23 
   9   5   3 28 27 25 
   9   7   2 26 23 
   6   2   2 29 25 
   9   7   2 27 25 
   3   3   2 26 25 
   2   1   1 25 
   8   3   1 25 
   7   6   1 32
  10   5   1 32
   2   3   1 32
  10   4   1 32
   7   3   1 32
   9   6   1 32
   6   6   1 32
   0   0   0 
